NAME: tsp5_6
COMMENT: 5-tsp problem (Padberg/Rinaldi)
TYPE: TSP
DIMENSION: 5
EDGE_WEIGHT_TYPE : EUC_2D
NODE_COORD_SECTION
1.00 30.21 11.04
2.00 27.13 7.19
3.00 19.41 33.37
4.00 33.73 0.73
5.00 19.97 16.78
